n = 8;
boxes = [|300, 250, 275, 39
         |400, 300, 300, 39
         |1000, 250, 250, 17
         |400, 375, 225, 45
         |1500, 275, 200, 30
         |500, 500, 275, 25
         |800, 400, 300, 23
         |600, 300, 300, 32|];
